428 427 426 420 421 422 423 424 425 382 386 387 388 389 390 392 391 393 394 395 396 371 372 373 322 323 324 325 326 327 367 365 368 369 370 398 397 399 400 401 402 403 404 406 407 408 405 409 385 383 384 410 418 419 417 411 412 356 413 414 416 415 351 352 353 354 355 357 360 359 358 349 350 347 348 361 362 363 364 346 345 344 343 341 340 342 366 328 329 330 331 332 333 339 338 337 336 335 334 283 284 285 286 287 280 281 282 279 278 277 276 288 289 290 275 274 273 272 271 268 269 270 292 291 293 294 295 296 267 266 265 264 263 262 261 260 259 258 299 298 297 321 320 319 317 318 305 306 304 303 307 506 507 508 302 301 300 257 256 255 253 254 252 251 250 249 248 241 242 243 244 245 247 246 238 239 240 237 236 235 234 232 233 530 531 532 533 489 488 534 535 487 486 485 484 536 537 539 538 540 176 175 177 178 187 188 186 227 228 229 230 231 225 226 189 190 191 192 219 218 220 221 222 224 223 217 216 215 214 213 212 211 210 209 193 194 195 196 197 184 185 183 182 179 181 180 169 171 170 172 174 173 108 109 107 542 541 543 544 545 546 547 103 104 105 106 117 116 115 114 110 111 112 113 161 162 168 163 167 166 201 200 199 198 205 206 207 208 202 204 203 165 164 154 160 159 156 155 153 157 158 145 144 143 142 146 147 148 152 149 150 151 141 140 139 136 135 134 133 132 131 130 129 137 138 128 127 126 125 124 69 70 68 67 66 65 64 76 75 74 73 72 71 123 122 121 120 119 118 95 96 97 94 93 91 92 90 89 88 77 78 87 86 85 84 51 50 52 54 53 83 82 81 80 79 62 63 61 60 59 58 57 56 55 49 48 47 46 45 555 554 553 552 100 99 98 102 101 551 550 559 558 557 556 44 43 42 39 41 40 38 37 36 35 34 33 32 30 31 29 28 27 26 25 24 21 22 23 12 13 14 15 16 11 10 9 6 7 8 17 18 19 20 568 569 570 474 473 567 566 565 564 563 562 561 560 549 548 478 477 479 480 476 475 482 481 483 493 492 491 490 529 528 527 512 511 510 509 513 514 515 516 517 522 521 523 526 525 524 520 519 518 495 494 472 471 470 469 468 467 466 465 464 496 497 498 502 503 504 505 308 309 310 311 312 313 316 314 315 374 375 376 377 378 379 380 381 445 444 443 439 442 446 447 448 449 440 441 450 451 501 500 499 453 452 461 462 463 459 460 571 572 573 5 0 4 3 2 1 458 457 456 455 454 438 437 436 435 434 433 432 430 431 429